p cnf 417 1060
-417 -414 0
-416 -413 0
-415 -412 0
-414 -410 0
-413 -409 0
-412 -408 0
-411 -407 0
-410 -406 -336 -283 0
-409 -405 -335 -280 0
-408 -404 -334 -277 0
-407 -399 0
-406 -398 0
-406 -105 0
-405 -397 0
-405 -104 0
-404 -396 0
-404 -159 0
-403 -395 0
-402 -394 0
-401 -393 0
-400 -392 0
-399 -391 -337 -286 0
-398 51 0
-398 390 0
-397 51 0
-397 389 0
-396 51 0
-396 388 0
-395 302 0
-395 387 0
-394 -385 0
-393 -384 0
-392 -383 0
-391 -382 0
-391 -106 0
-390 -381 0
-390 -380 0
-390 -51 398 0
-389 -379 0
-389 -378 0
-389 -51 397 0
-388 -377 0
-388 -376 0
-388 -51 396 0
-387 -368 -250 0
-387 -302 395 0
-386 -375 0
-385 -374 -343 -295 -219 0
-384 -373 -341 -292 -218 0
-383 -372 -339 -289 0
-382 51 0
-382 371 0
-381 282 0
-381 370 0
-380 -370 0
-380 -282 0
-379 279 0
-379 369 0
-378 -369 0
-378 -279 0
-377 276 0
-377 368 0
-376 -368 0
-376 -276 0
-375 -364 0
-374 -363 0
-374 -110 0
-373 -362 0
-373 -108 0
-372 -361 0
-372 -107 0
-371 -360 0
-371 -359 0
-371 -51 382 0
-370 -365 -311 0
-370 -282 381 0
-369 -366 -331 -308 0
-369 -279 379 0
-368 -367 -333 -332 -305 0
-368 -276 377 0
-367 -354 -259 -256 -253 0
-366 -354 -259 -256 0
-365 -354 -259 0
-364 -358 -345 -298 -220 0
-363 51 0
-363 357 0
-362 51 0
-362 356 0
-361 51 0
-361 355 0
-360 285 0
-360 354 0
-359 -354 0
-359 -285 0
-358 -352 0
-358 -112 0
-357 -351 0
-357 -350 0
-357 -51 363 0
-356 -349 0
-356 -348 0
-356 -51 362 0
-355 -347 0
-355 -346 0
-355 -51 361 0
-354 -353 -314 0
-354 -285 360 0
-353 -338 -262 0
-352 51 0
-352 344 0
-351 294 0
-351 342 0
-350 -342 0
-350 -294 0
-349 291 0
-349 340 0
-348 -340 0
-348 -291 0
-347 288 0
-347 338 0
-346 -338 0
-346 -288 0
-345 -327 0
-345 -326 0
-344 -325 0
-344 -324 0
-344 -51 352 0
-343 -322 0
-343 -321 0
-342 -323 -299 0
-342 -294 351 0
-341 -319 0
-341 -318 0
-340 -328 -320 -300 0
-340 -291 349 0
-339 -316 0
-339 -315 0
-338 -330 -329 -317 -301 0
-338 -288 347 0
-337 -313 0
-337 -312 0
-336 -310 0
-336 -309 0
-335 -307 0
-335 -306 0
-334 -304 0
-334 -303 0
-333 -284 -256 -253 0
-332 -281 -253 0
-331 -284 -256 0
-330 -296 -268 -265 0
-329 -293 -265 0
-328 -296 -268 0
-327 53 0
-327 296 0
-326 52 0
-326 297 0
-325 58 0
-325 297 0
-324 -297 0
-324 -58 0
-323 -296 0
-322 53 0
-322 293 0
-321 52 0
-321 294 0
-320 -293 0
-319 53 0
-319 290 0
-318 52 0
-318 291 0
-317 -290 0
-316 53 0
-316 287 0
-315 52 0
-315 288 0
-314 -287 0
-313 53 0
-313 284 0
-312 52 0
-312 285 0
-311 -284 0
-310 53 0
-310 281 0
-309 52 0
-309 282 0
-308 -281 0
-307 53 0
-307 278 0
-306 52 0
-306 279 0
-305 -278 0
-304 53 0
-304 275 0
-303 52 0
-303 276 0
-302 -275 0
-301 -271 -268 -265 -58 0
-300 -271 -268 -58 0
-299 -271 -58 0
-298 -272 0
-298 -113 0
-297 -58 325 0
-297 -52 326 0
-297 270 0
-297 271 0
-296 -270 0
-296 -53 327 0
-295 -269 0
-295 -111 0
-294 -52 321 0
-294 267 0
-294 268 0
-293 -267 0
-293 -53 322 0
-292 -266 0
-292 -109 0
-291 -52 318 0
-291 264 0
-291 265 0
-290 -264 0
-290 -53 319 0
-289 -263 0
-289 -217 0
-288 -52 315 0
-288 261 0
-288 262 0
-287 -261 0
-287 -53 316 0
-286 -260 0
-286 -216 0
-285 -52 312 0
-285 258 0
-285 259 0
-284 -258 0
-284 -53 313 0
-283 -257 0
-283 -215 0
-282 -52 309 0
-282 255 0
-282 256 0
-281 -255 0
-281 -53 310 0
-280 -254 0
-280 -214 0
-279 -52 306 0
-279 252 0
-279 253 0
-278 -252 0
-278 -53 307 0
-277 -251 0
-277 -213 0
-276 -52 303 0
-276 249 0
-276 250 0
-275 -249 0
-275 -53 304 0
-274 -248 0
-274 -246 0
-273 -247 0
-273 -235 0
-272 54 0
-272 243 0
-271 -270 297 0
-271 48 243 0
-270 -243 -48 0
-269 54 0
-269 242 0
-268 -267 294 0
-268 47 242 0
-267 -242 -47 0
-266 54 0
-266 241 0
-265 -264 291 0
-265 46 241 0
-264 -241 -46 0
-263 54 0
-263 240 0
-262 -261 288 0
-262 45 240 0
-261 -240 -45 0
-260 54 0
-260 239 0
-259 -258 285 0
-259 44 239 0
-258 -239 -44 0
-257 54 0
-257 238 0
-256 -255 282 0
-256 43 238 0
-255 -238 -43 0
-254 54 0
-254 237 0
-253 -252 279 0
-253 42 237 0
-252 -237 -42 0
-251 54 0
-251 236 0
-250 -249 276 0
-250 41 236 0
-249 -236 -41 0
-248 244 0
-248 245 0
-247 233 0
-247 234 0
-246 231 0
-246 232 0
-245 -244 248 0
-245 -232 0
-244 -231 0
-243 -230 -186 0
-243 -54 272 0
-243 271 0
-242 -229 -185 0
-242 -54 269 0
-242 268 0
-241 -228 -184 0
-241 -54 266 0
-241 265 0
-240 -227 -183 0
-240 -54 263 0
-240 262 0
-239 -226 -200 0
-239 -54 260 0
-239 259 0
-238 -225 -198 0
-238 -54 257 0
-238 256 0
-237 -224 -196 0
-237 -54 254 0
-237 253 0
-236 -223 -194 0
-236 -54 251 0
-236 250 0
-235 221 0
-235 222 0
-234 -233 247 0
-234 -222 0
-233 -221 0
-232 -231 246 0
-232 -212 -211 0
-231 -210 -209 0
-230 -208 0
-230 -207 0
-229 -206 0
-229 -205 0
-228 -204 0
-228 -203 0
-227 -202 0
-227 -201 0
-226 -199 0
-226 -92 0
-225 -197 0
-225 -91 0
-224 -195 0
-224 -90 0
-223 -193 0
-223 -88 0
-222 -221 235 0
-222 -192 -191 0
-221 -190 -189 0
-220 -170 -48 0
-219 -170 -47 0
-218 -170 -46 0
-217 45 0
-217 170 0
-216 44 0
-216 170 0
-215 43 0
-215 170 0
-214 42 0
-214 170 0
-213 41 0
-213 170 0
-212 49 188 0
-211 -188 -49 0
-210 32 187 0
-209 -187 -32 0
-208 31 0
-208 173 0
-207 39 0
-207 182 0
-206 30 0
-206 173 0
-205 37 0
-205 182 0
-204 29 0
-204 173 0
-203 36 0
-203 182 0
-202 28 0
-202 173 0
-201 35 0
-201 182 0
-200 -181 0
-200 -180 0
-199 27 0
-199 173 0
-198 -179 0
-198 -178 0
-197 26 0
-197 173 0
-196 -177 0
-196 -176 0
-195 25 0
-195 173 0
-194 -175 0
-194 -174 0
-193 24 0
-193 173 0
-192 33 172 0
-191 -172 -33 0
-190 32 171 0
-189 -171 -32 0
-188 -169 0
-188 -158 0
-188 212 0
-187 -168 0
-187 -155 0
-187 210 0
-186 133 165 0
-185 133 165 0
-184 133 165 0
-183 133 165 0
-182 -167 -1 0
-182 -39 207 0
-182 -37 205 0
-182 -36 203 0
-182 -35 201 0
-181 89 0
-181 164 0
-180 39 0
-180 163 0
-179 89 0
-179 164 0
-178 37 0
-178 163 0
-177 89 0
-177 164 0
-176 36 0
-176 163 0
-175 89 0
-175 164 0
-174 35 0
-174 163 0
-173 -166 -152 0
-173 -31 208 0
-173 -30 206 0
-173 -29 204 0
-173 -28 202 0
-173 -27 199 0
-173 -26 197 0
-173 -25 195 0
-173 -24 193 0
-172 -162 0
-172 -151 0
-172 192 0
-171 -161 0
-171 -148 0
-171 190 0
-170 -160 0
-170 -45 217 0
-170 -44 216 0
-170 -43 215 0
-170 -42 214 0
-170 -41 213 0
-169 156 0
-169 157 0
-168 153 0
-168 154 0
-167 -140 -93 -4 0
-166 -140 -134 -40 -11 0
-165 -140 -70 -10 0
-165 183 0
-165 184 0
-165 185 0
-165 186 0
-164 -89 175 0
-164 -89 177 0
-164 -89 179 0
-164 -89 181 0
-164 4 0
-164 70 0
-164 140 0
-163 -39 180 0
-163 -37 178 0
-163 -36 176 0
-163 -35 174 0
-163 10 0
-163 93 0
-163 140 0
-162 149 0
-162 150 0
-161 146 0
-161 147 0
-160 -142 0
-159 50 0
-159 133 0
-158 137 0
-158 138 0
-157 -156 169 0
-157 -138 0
-156 -137 0
-155 135 0
-155 136 0
-154 -153 168 0
-154 -136 0
-153 -135 0
-152 -124 -119 0
-151 131 0
-151 132 0
-150 -149 162 0
-150 -132 0
-149 -131 0
-148 129 0
-148 130 0
-147 -146 161 0
-147 -130 0
-146 -129 0
-145 -127 0
-144 -122 0
-143 -121 0
-142 14 0
-142 120 0
-141 -118 0
-140 -117 0
-140 -93 -10 163 0
-140 -70 -4 164 0
-139 62 115 0
-138 -137 158 0
-138 -103 -102 0
-137 -101 -100 0
-136 -135 155 0
-136 -99 -98 0
-135 -97 -96 0
-134 -95 0
-134 -94 0
-133 -89 0
-133 -50 159 0
-133 183 0
-133 184 0
-133 185 0
-133 186 0
-132 -131 151 0
-132 -87 -86 0
-131 -85 -84 0
-130 -129 148 0
-130 -83 -82 0
-129 -81 -80 0
-128 23 0
-128 79 0
-127 -79 -22 0
-126 -77 0
-125 -76 0
-124 -75 0
-123 -74 0
-122 66 69 0
-121 66 68 0
-120 -67 0
-120 -66 0
-120 -14 142 0
-119 -65 0
-118 -64 0
-117 -64 0
-116 62 63 0
-115 -63 0
-115 139 0
-114 -61 0
-113 55 0
-113 59 0
-112 30 0
-112 50 0
-111 55 0
-111 57 0
-110 29 0
-110 50 0
-109 55 0
-109 56 0
-108 28 0
-108 50 0
-107 27 0
-107 50 0
-106 26 0
-106 50 0
-105 25 0
-105 50 0
-104 24 0
-104 50 0
-103 47 48 0
-102 -48 -47 0
-101 45 46 0
-100 -46 -45 0
-99 43 44 0
-98 -44 -43 0
-97 41 42 0
-96 -42 -41 0
-95 4 0
-95 8 0
-94 -8 0
-94 -4 0
-93 -40 -11 0
-92 34 0
-92 38 0
-91 4 0
-91 34 0
-90 9 0
-90 34 0
-89 -60 0
-88 2 0
-88 34 0
-87 30 31 0
-86 -31 -30 0
-85 28 29 0
-84 -29 -28 0
-83 26 27 0
-82 -27 -26 0
-81 24 25 0
-80 -25 -24 0
-79 -23 128 0
-79 20 21 0
-78 18 0
-78 19 0
-77 7 0
-77 8 0
-77 11 0
-76 7 0
-76 11 0
-76 17 0
-75 8 0
-75 11 0
-75 16 0
-74 11 0
-74 16 0
-74 17 0
-73 6 0
-73 7 0
-73 8 0
-72 6 0
-72 7 0
-72 17 0
-71 6 0
-71 8 0
-71 16 0
-70 6 0
-70 16 0
-70 17 0
-69 -15 -12 -11 0
-69 122 0
-68 -12 -6 0
-68 121 0
-67 -13 -12 -11 -8 0
-66 -10 -3 -2 -1 0
-66 121 0
-66 122 0
-65 -9 -4 -2 -1 0
-64 1 0
-64 5 0
-64 9 0
-63 6 0
-63 7 0
-63 8 0
-63 116 0
-62 -5 -4 -3 -1 0
-62 116 0
-62 139 0
-61 -4 -3 -2 -1 0
-59 -55 113 0
-57 -55 111 0
-56 -55 109 0
-50 -30 112 0
-50 -29 110 0
-50 -28 108 0
-50 -27 107 0
-50 -26 106 0
-50 -25 105 0
-50 -24 104 0
-49 212 0
-48 103 0
-48 271 0
-47 103 0
-47 268 0
-46 101 0
-46 265 0
-45 101 0
-45 262 0
-44 99 0
-44 259 0
-43 99 0
-43 256 0
-42 97 0
-42 253 0
-41 97 0
-41 250 0
-38 -34 92 0
-34 -9 90 0
-34 -4 91 0
-34 -2 88 0
-33 192 0
-32 190 0
-32 210 0
-31 87 0
-30 87 0
-29 85 0
-28 85 0
-27 83 0
-26 83 0
-25 81 0
-24 81 0
-21 79 0
-20 79 0
-19 -18 78 0
-17 -16 -11 74 0
-17 -16 -6 70 0
-17 -11 -7 76 0
-17 -7 -6 72 0
-16 -11 -8 75 0
-16 -8 -6 71 0
-11 -8 -7 77 0
-9 -5 -1 64 0
-8 -7 -6 63 0
-8 -7 -6 73 0
-8 -4 95 0
1 61 0
1 62 0
1 65 0
1 66 0
1 182 0
2 61 0
2 65 0
2 66 0
3 61 0
3 62 0
3 66 0
4 8 94 0
4 61 0
4 62 0
4 65 0
4 167 0
5 62 0
6 68 0
8 67 0
9 65 0
10 66 0
10 165 0
11 67 0
11 69 0
11 93 0
11 166 0
12 67 0
12 68 0
12 69 0
13 67 0
15 69 0
22 127 0
24 80 0
25 80 0
26 82 0
27 82 0
28 84 0
29 84 0
30 86 0
31 86 0
32 189 0
32 209 0
33 191 0
40 93 0
40 166 0
41 96 0
41 249 0
42 96 0
42 252 0
43 98 0
43 255 0
44 98 0
44 258 0
45 100 0
45 261 0
46 100 0
46 218 0
46 264 0
47 102 0
47 219 0
47 267 0
48 102 0
48 220 0
48 270 0
49 211 0
58 297 324 0
58 299 0
58 300 0
58 301 0
60 89 0
61 114 0
63 115 0
64 117 0
64 118 0
65 119 0
66 67 120 0
70 165 0
74 123 0
75 124 0
76 125 0
77 126 0
79 127 0
80 129 0
81 129 0
82 130 0
83 130 0
84 131 0
85 131 0
86 132 0
87 132 0
88 193 223 0
89 133 0
90 195 224 0
91 197 225 0
92 199 226 0
93 167 0
94 95 134 0
96 135 0
97 135 0
98 136 0
99 136 0
100 137 0
101 137 0
102 138 0
103 138 0
104 397 405 0
105 398 406 0
106 382 391 0
107 361 372 0
108 362 373 0
109 266 292 0
110 363 374 0
111 269 295 0
112 352 358 0
113 272 298 0
117 140 0
118 141 0
119 152 0
121 143 0
122 144 0
124 152 0
127 145 0
129 146 0
130 147 0
131 149 0
132 150 0
134 166 0
135 153 0
136 154 0
137 156 0
138 157 0
140 165 0
140 166 0
140 167 0
142 160 0
148 161 171 0
151 162 172 0
152 173 0
155 168 187 0
158 169 188 0
159 396 404 0
160 170 0
166 173 0
167 182 0
170 218 0
170 219 0
170 220 0
171 189 0
172 191 0
174 175 194 0
176 177 196 0
178 179 198 0
180 181 200 0
183 240 0
184 241 0
185 242 0
186 243 0
187 209 0
188 211 0
189 221 0
190 221 0
191 222 0
192 222 0
194 236 0
196 237 0
198 238 0
200 239 0
201 202 227 0
203 204 228 0
205 206 229 0
207 208 230 0
209 231 0
210 231 0
211 232 0
212 232 0
213 251 277 0
214 254 280 0
215 257 283 0
216 260 286 0
217 263 289 0
218 384 0
219 385 0
220 364 0
221 233 0
222 234 0
223 236 0
224 237 0
225 238 0
226 239 0
227 240 0
228 241 0
229 242 0
230 243 0
231 244 0
232 245 0
235 247 273 0
236 249 0
237 252 0
238 255 0
239 258 0
240 261 0
241 264 0
242 267 0
243 270 0
246 248 274 0
249 275 0
250 387 0
252 278 0
253 332 0
253 333 0
253 367 0
255 281 0
256 331 0
256 333 0
256 366 0
256 367 0
258 284 0
259 365 0
259 366 0
259 367 0
261 287 0
262 353 0
264 290 0
265 301 0
265 329 0
265 330 0
267 293 0
268 300 0
268 301 0
268 328 0
268 330 0
270 296 0
271 299 0
271 300 0
271 301 0
275 302 0
276 368 376 0
277 408 0
278 305 0
279 369 378 0
280 409 0
281 308 0
281 332 0
282 370 380 0
283 410 0
284 311 0
284 331 0
284 333 0
285 354 359 0
286 399 0
287 314 0
288 338 346 0
289 383 0
290 317 0
291 340 348 0
292 384 0
293 320 0
293 329 0
294 342 350 0
295 385 0
296 323 0
296 328 0
296 330 0
298 364 0
299 342 0
300 340 0
301 338 0
303 304 334 0
305 368 0
306 307 335 0
308 369 0
309 310 336 0
311 370 0
312 313 337 0
314 354 0
315 316 339 0
317 338 0
318 319 341 0
320 340 0
321 322 343 0
323 342 0
324 325 344 0
326 327 345 0
328 340 0
329 338 0
330 338 0
331 369 0
332 368 0
333 368 0
334 408 0
335 409 0
336 410 0
337 399 0
338 353 0
339 383 0
341 384 0
343 385 0
345 364 0
346 347 355 0
348 349 356 0
350 351 357 0
353 354 0
354 365 0
354 366 0
354 367 0
358 364 0
359 360 371 0
364 375 0
365 370 0
366 369 0
367 368 0
368 387 0
372 383 0
373 384 0
374 385 0
375 386 0
376 377 388 0
378 379 389 0
380 381 390 0
383 392 0
384 393 0
385 394 0
391 399 0
392 400 0
393 401 0
394 402 0
395 403 0
399 407 0
404 408 0
405 409 0
406 410 0
407 411 0
408 412 0
409 413 0
410 414 0
412 415 0
413 416 0
414 417 0
